167188
56,2,59,42,32,39,73,57,8,76,55,10,6,74,7,27,34,78,29,81,43,52,67,49,3,62,38,40,51,64,30,18,23,20,31,21,4,53,0,28,72,61,66,75,25,19,35,65,70,44,69,13,79,45,17,12,36,63,9,47,58,82,5,60,41,14,33,48,46,80,50,71,26,16,15,37,1,77,68,24,54,22,11